40
1 0 38
2 0 33
2 1 22
3 0 23
3 1 9
3 2 45
4 0 17
4 1 44
4 2 8
4 3 18
5 0 20
5 1 4
5 2 11
5 3 34
5 4 30
6 0 42
6 1 1
6 2 17
6 3 48
6 4 30
6 5 14
7 0 48
7 1 46
7 2 10
7 3 40
7 4 8
7 5 13
7 6 26
8 0 7
8 1 13
8 2 2
8 3 29
8 4 17
8 5 9
8 6 3
8 7 15
9 0 44
9 1 5
9 2 5
9 3 9
9 4 14
9 5 1
9 6 45
9 7 15
9 8 30
10 0 43
10 1 20
10 2 22
10 3 25
10 4 8
10 5 6
10 6 27
10 7 23
10 8 27
10 9 12
11 0 18
11 1 27
11 2 45
11 3 7
11 4 20
11 5 38
11 6 33
11 7 14
11 8 12
11 9 44
11 10 16
12 0 29
12 1 49
12 2 14
12 3 49
12 4 1
12 5 18
12 6 4
12 7 38
12 8 33
12 9 33
12 10 37
12 11 13
13 0 37
13 1 44
13 2 1
13 3 17
13 4 16
13 5 6
13 6 27
13 7 6
13 8 28
13 9 37
13 10 43
13 11 41
13 12 42
14 0 28
14 1 23
14 2 36
14 3 3
14 4 45
14 5 8
14 6 32
14 7 4
14 8 30
14 9 44
14 10 27
14 11 43
14 12 15
14 13 34
15 0 11
15 1 3
15 2 8
15 3 37
15 4 4
15 5 43
15 6 19
15 7 15
15 8 27
15 9 20
15 10 50
15 11 5
15 12 33
15 13 20
15 14 21
16 0 35
16 1 44
16 2 3
16 3 21
16 4 28
16 5 50
16 6 9
16 7 1
16 8 9
16 9 42
16 10 35
16 11 27
16 12 6
16 13 5
16 14 49
16 15 44
17 0 8
17 1 30
17 2 34
17 3 36
17 4 43
17 5 35
17 6 6
17 7 21
17 8 42
17 9 23
17 10 25
17 11 23
17 12 12
17 13 11
17 14 46
17 15 38
17 16 27
18 0 24
18 1 39
18 2 32
18 3 8
18 4 6
18 5 29
18 6 35
18 7 12
18 8 25
18 9 1
18 10 9
18 11 28
18 12 45
18 13 19
18 14 35
18 15 37
18 16 21
18 17 23
19 0 47
19 1 41
19 2 18
19 3 9
19 4 15
19 5 5
19 6 23
19 7 2
19 8 7
19 9 38
19 10 31
19 11 3
19 12 13
19 13 32
19 14 5
19 15 22
19 16 45
19 17 17
19 18 18
20 0 30
20 1 7
20 2 9
20 3 37
20 4 49
20 5 27
20 6 1
20 7 38
20 8 50
20 9 36
20 10 46
20 11 3
20 12 43
20 13 38
20 14 45
20 15 41
20 16 2
20 17 42
20 18 28
20 19 15
21 0 7
21 1 31
21 2 14
21 3 7
21 4 38
21 5 50
21 6 3
21 7 1
21 8 4
21 9 27
21 10 15
21 11 17
21 12 50
21 13 21
21 14 23
21 15 40
21 16 13
21 17 48
21 18 37
21 19 39
21 20 39
22 0 45
22 1 32
22 2 27
22 3 50
22 4 3
22 5 1
22 6 47
22 7 15
22 8 3
22 9 49
22 10 34
22 11 24
22 12 7
22 13 24
22 14 4
22 15 1
22 16 24
22 17 44
22 18 44
22 19 22
22 20 8
22 21 29
23 0 33
23 1 13
23 2 8
23 3 19
23 4 38
23 5 13
23 6 35
23 7 28
23 8 48
23 9 42
23 10 42
23 11 22
23 12 4
23 13 41
23 14 15
23 15 4
23 16 24
23 17 14
23 18 38
23 19 23
23 20 47
23 21 37
23 22 10
24 0 7
24 1 26
24 2 5
24 3 5
24 4 20
24 5 20
24 6 10
24 7 15
24 8 6
24 9 28
24 10 29
24 11 3
24 12 9
24 13 9
24 14 18
24 15 34
24 16 2
24 17 41
24 18 31
24 19 25
24 20 31
24 21 41
24 22 15
24 23 15
25 0 45
25 1 31
25 2 9
25 3 13
25 4 33
25 5 39
25 6 28
25 7 13
25 8 20
25 9 46
25 10 36
25 11 50
25 12 11
25 13 1
25 14 5
25 15 7
25 16 25
25 17 32
25 18 9
25 19 34
25 20 12
25 21 39
25 22 49
25 23 3
25 24 32
26 0 8
26 1 6
26 2 41
26 3 20
26 4 22
26 5 23
26 6 39
26 7 28
26 8 36
26 9 12
26 10 1
26 11 49
26 12 40
26 13 37
26 14 18
26 15 40
26 16 38
26 17 5
26 18 28
26 19 23
26 20 30
26 21 5
26 22 5
26 23 2
26 24 18
26 25 18
27 0 2
27 1 11
27 2 1
27 3 45
27 4 47
27 5 43
27 6 30
27 7 45
27 8 15
27 9 3
27 10 41
27 11 36
27 12 50
27 13 21
27 14 43
27 15 43
27 16 16
27 17 31
27 18 16
27 19 22
27 20 40
27 21 29
27 22 13
27 23 14
27 24 8
27 25 42
27 26 48
28 0 27
28 1 27
28 2 48
28 3 46
28 4 34
28 5 16
28 6 11
28 7 43
28 8 11
28 9 50
28 10 21
28 11 16
28 12 21
28 13 42
28 14 5
28 15 34
28 16 45
28 17 27
28 18 19
28 19 31
28 20 41
28 21 41
28 22 43
28 23 40
28 24 17
28 25 40
28 26 37
28 27 48
29 0 6
29 1 39
29 2 46
29 3 33
29 4 14
29 5 18
29 6 30
29 7 34
29 8 8
29 9 20
29 10 44
29 11 16
29 12 34
29 13 7
29 14 18
29 15 34
29 16 3
29 17 10
29 18 20
29 19 16
29 20 21
29 21 43
29 22 47
29 23 34
29 24 20
29 25 18
29 26 3
29 27 38
29 28 36
30 0 8
30 1 10
30 2 22
30 3 27
30 4 34
30 5 10
30 6 30
30 7 43
30 8 36
30 9 23
30 10 49
30 11 19
30 12 34
30 13 34
30 14 11
30 15 34
30 16 9
30 17 15
30 18 44
30 19 15
30 20 39
30 21 19
30 22 8
30 23 25
30 24 48
30 25 24
30 26 22
30 27 27
30 28 26
30 29 50
31 0 11
31 1 35
31 2 43
31 3 1
31 4 47
31 5 34
31 6 2
31 7 17
31 8 34
31 9 34
31 10 34
31 11 24
31 12 38
31 13 34
31 14 31
31 15 45
31 16 38
31 17 28
31 18 25
31 19 25
31 20 31
31 21 48
31 22 11
31 23 8
31 24 24
31 25 13
31 26 4
31 27 13
31 28 37
31 29 49
31 30 15
32 0 43
32 1 25
32 2 17
32 3 40
32 4 22
32 5 2
32 6 50
32 7 33
32 8 9
32 9 22
32 10 7
32 11 40
32 12 7
32 13 8
32 14 13
32 15 22
32 16 49
32 17 13
32 18 33
32 19 33
32 20 2
32 21 37
32 22 10
32 23 5
32 24 36
32 25 1
32 26 45
32 27 16
32 28 35
32 29 24
32 30 22
32 31 40
33 0 27
33 1 39
33 2 41
33 3 20
33 4 9
33 5 14
33 6 26
33 7 27
33 8 5
33 9 37
33 10 39
33 11 43
33 12 28
33 13 12
33 14 19
33 15 36
33 16 26
33 17 35
33 18 27
33 19 5
33 20 49
33 21 47
33 22 44
33 23 28
33 24 50
33 25 35
33 26 42
33 27 15
33 28 26
33 29 15
33 30 39
33 31 42
33 32 32
34 0 41
34 1 30
34 2 14
34 3 24
34 4 43
34 5 43
34 6 31
34 7 48
34 8 23
34 9 23
34 10 26
34 11 40
34 12 31
34 13 26
34 14 10
34 15 24
34 16 27
34 17 5
34 18 38
34 19 29
34 20 16
34 21 26
34 22 47
34 23 8
34 24 10
34 25 47
34 26 42
34 27 40
34 28 10
34 29 7
34 30 31
34 31 41
34 32 30
34 33 29
35 0 44
35 1 16
35 2 13
35 3 26
35 4 18
35 5 22
35 6 2
35 7 26
35 8 45
35 9 43
35 10 7
35 11 27
35 12 12
35 13 20
35 14 9
35 15 37
35 16 40
35 17 17
35 18 7
35 19 29
35 20 26
35 21 31
35 22 34
35 23 27
35 24 30
35 25 15
35 26 11
35 27 4
35 28 19
35 29 38
35 30 48
35 31 10
35 32 10
35 33 28
35 34 47
36 0 49
36 1 22
36 2 2
36 3 13
36 4 46
36 5 18
36 6 46
36 7 22
36 8 38
36 9 32
36 10 22
36 11 39
36 12 28
36 13 9
36 14 12
36 15 23
36 16 28
36 17 4
36 18 17
36 19 21
36 20 38
36 21 36
36 22 23
36 23 5
36 24 40
36 25 6
36 26 21
36 27 14
36 28 35
36 29 18
36 30 4
36 31 46
36 32 41
36 33 21
36 34 20
36 35 39
37 0 19
37 1 2
37 2 26
37 3 39
37 4 13
37 5 10
37 6 34
37 7 43
37 8 21
37 9 16
37 10 42
37 11 37
37 12 11
37 13 29
37 14 42
37 15 22
37 16 24
37 17 26
37 18 31
37 19 47
37 20 10
37 21 8
37 22 11
37 23 3
37 24 10
37 25 14
37 26 48
37 27 27
37 28 46
37 29 18
37 30 16
37 31 46
37 32 29
37 33 27
37 34 31
37 35 26
37 36 43
38 0 21
38 1 7
38 2 46
38 3 11
38 4 44
38 5 26
38 6 27
38 7 31
38 8 44
38 9 24
38 10 11
38 11 35
38 12 5
38 13 10
38 14 42
38 15 7
38 16 40
38 17 6
38 18 37
38 19 42
38 20 20
38 21 30
38 22 2
38 23 33
38 24 28
38 25 47
38 26 11
38 27 15
38 28 32
38 29 42
38 30 44
38 31 21
38 32 7
38 33 1
38 34 6
38 35 48
38 36 10
38 37 28
39 0 10
39 1 20
39 2 16
39 3 28
39 4 14
39 5 25
39 6 2
39 7 42
39 8 29
39 9 26
39 10 5
39 11 41
39 12 9
39 13 50
39 14 14
39 15 46
39 16 10
39 17 47
39 18 4
39 19 49
39 20 5
39 21 27
39 22 45
39 23 32
39 24 29
39 25 48
39 26 12
39 27 40
39 28 50
39 29 45
39 30 9
39 31 14
39 32 21
39 33 44
39 34 21
39 35 21
39 36 45
39 37 19
39 38 3
